Minimize
  - 5 y_0 - 7 y_1 - 6 y_3 - 9 y_4 - 18 y_5 - 17 y_6 - 13 y_7 - 2 y_8 - 7 y_9
   + 84 Constant
Subject To
 c_0: y_4 = 1
 c_1_0: y_0 + y_3 + y_8 >= 1
 c_1_1: y_1 + y_3 + y_9 >= 1
 c_1_2: y_2 + y_8 >= 1
 c_1_3: y_0 + y_1 + y_3 + y_4 + y_8 >= 1
 c_1_4: y_3 + y_4 >= 1
 c_1_5: y_5 + y_6 >= 1
 c_1_6: y_5 + y_6 >= 1
 c_1_7: y_7 >= 1
 c_1_8: y_0 + y_2 + y_3 + y_8 >= 1
 c_1_9: y_1 + y_9 >= 1
Bounds
 Constant = 1
Binaries
 y_0 y_1 y_2 y_3 y_4 y_5 y_6 y_7 y_8 y_9
End
